Strategies:  

WARNING: for repeatability, setting FPU to use double precision
============================[ Problem Statistics ]=============================
|                                                                             |
|  Number of variables:           999                                         |
|  Number of clauses:            9072                                         |
|  Parse time:                   0.00 s                                       |
|  Eliminated clauses:           0.00 Mb                                      |
|  Simplification time:          0.00 s                                       |
|                                                                             |
============================[ Search Statistics ]==============================
| Conflicts |          ORIGINAL         |          LEARNT          | Progress |
|           |    Vars  Clauses Literals |    Limit  Clauses Lit/Cl |          |
===============================================================================
===============================================================================
restarts              : 1
conflicts             : 2              (500 /sec)
decisions             : 9              (0.00 % random) (2250 /sec)
propagations          : 807            (201750 /sec)
conflict literals     : 2              (0.00 % deleted)
Memory used           : 22.00 MB
CPU time              : 0.004 s

SATISFIABLE


Strategies: -b -p  

WARNING: for repeatability, setting FPU to use double precision
============================[ Problem Statistics ]=============================
|                                                                             |
|  Number of variables:           999                                         |
|  Number of clauses:          338580                                         |
|  Parse time:                   0.28 s                                       |
|  Eliminated clauses:           0.00 Mb                                      |
|  Simplification time:         29.43 s                                       |
|                                                                             |
============================[ Search Statistics ]==============================
| Conflicts |          ORIGINAL         |          LEARNT          | Progress |
|           |    Vars  Clauses Literals |    Limit  Clauses Lit/Cl |          |
===============================================================================
===============================================================================
restarts              : 1
conflicts             : 1              (0 /sec)
decisions             : 3              (0.00 % random) (0 /sec)
propagations          : 754            (25 /sec)
conflict literals     : 1              (0.00 % deleted)
Memory used           : 88.00 MB
CPU time              : 29.712 s

SATISFIABLE


Strategies: -b -x  

WARNING: for repeatability, setting FPU to use double precision
============================[ Problem Statistics ]=============================
|                                                                             |
|  Number of variables:           999                                         |
|  Number of clauses:          302292                                         |
|  Parse time:                   0.20 s                                       |
|  Eliminated clauses:           0.00 Mb                                      |
|  Simplification time:          0.31 s                                       |
|                                                                             |
============================[ Search Statistics ]==============================
| Conflicts |          ORIGINAL         |          LEARNT          | Progress |
|           |    Vars  Clauses Literals |    Limit  Clauses Lit/Cl |          |
===============================================================================
===============================================================================
restarts              : 1
conflicts             : 1              (2 /sec)
decisions             : 3              (0.00 % random) (6 /sec)
propagations          : 777            (1506 /sec)
conflict literals     : 1              (0.00 % deleted)
Memory used           : 77.00 MB
CPU time              : 0.516 s

SATISFIABLE


Strategies: -b -x -p  

WARNING: for repeatability, setting FPU to use double precision
============================[ Problem Statistics ]=============================
|                                                                             |
|  Number of variables:           999                                         |
|  Number of clauses:          628884                                         |
|  Parse time:                   0.46 s                                       |
|  Eliminated clauses:           0.00 Mb                                      |
|  Simplification time:         23.76 s                                       |
|                                                                             |
============================[ Search Statistics ]==============================
| Conflicts |          ORIGINAL         |          LEARNT          | Progress |
|           |    Vars  Clauses Literals |    Limit  Clauses Lit/Cl |          |
===============================================================================
===============================================================================
restarts              : 1
conflicts             : 1              (0 /sec)
decisions             : 3              (0.00 % random) (0 /sec)
propagations          : 754            (31 /sec)
conflict literals     : 1              (0.00 % deleted)
Memory used           : 139.00 MB
CPU time              : 24.212 s

SATISFIABLE


Strategies: -b -a  

WARNING: for repeatability, setting FPU to use double precision
============================[ Problem Statistics ]=============================
|                                                                             |
|  Number of variables:           999                                         |
|  Number of clauses:          956772                                         |
|  Parse time:                   0.88 s                                       |
|  Eliminated clauses:           0.00 Mb                                      |
|  Simplification time:          2.29 s                                       |
|                                                                             |
============================[ Search Statistics ]==============================
| Conflicts |          ORIGINAL         |          LEARNT          | Progress |
|           |    Vars  Clauses Literals |    Limit  Clauses Lit/Cl |          |
===============================================================================
===============================================================================
restarts              : 1
conflicts             : 1              (0 /sec)
decisions             : 3              (0.00 % random) (1 /sec)
propagations          : 777            (245 /sec)
conflict literals     : 1              (0.00 % deleted)
Memory used           : 287.00 MB
CPU time              : 3.172 s

SATISFIABLE


Strategies: -b  

WARNING: for repeatability, setting FPU to use double precision
============================[ Problem Statistics ]=============================
|                                                                             |
|  Number of variables:           999                                         |
|  Number of clauses:           11988                                         |
|  Parse time:                   0.00 s                                       |
|  Eliminated clauses:           0.00 Mb                                      |
|  Simplification time:          0.01 s                                       |
|                                                                             |
============================[ Search Statistics ]==============================
| Conflicts |          ORIGINAL         |          LEARNT          | Progress |
|           |    Vars  Clauses Literals |    Limit  Clauses Lit/Cl |          |
===============================================================================
===============================================================================
restarts              : 1
conflicts             : 1              (62 /sec)
decisions             : 3              (0.00 % random) (188 /sec)
propagations          : 777            (48562 /sec)
conflict literals     : 1              (0.00 % deleted)
Memory used           : 23.00 MB
CPU time              : 0.016 s

SATISFIABLE


